db/data/271762922128872765816940250181412821148.z3.out
sat
-------------------
1115.594465574
